\ENCODING=ISO-8859-1
\Problem name: IloCplex

Minimize
 obj1: 0.8 X1(0)(0) + 0.8 X1(0)(1) + 0.8 X1(0)(2) + 0.8 X1(0)(3) + 0.8 X1(0)(4)
       + 0.8 X1(1)(0) + 0.8 X1(1)(1) + 0.8 X1(1)(2) + 0.8 X1(1)(3)
       + 0.8 X1(1)(4) + 0.8 X1(2)(0) + 0.8 X1(2)(1) + 0.8 X1(2)(2)
       + 0.8 X1(2)(3) + 0.8 X1(2)(4) + 0.8 X1(3)(0) + 0.8 X1(3)(1)
       + 0.8 X1(3)(2) + 0.8 X1(3)(3) + 0.8 X1(3)(4) + 0.8 X1(4)(0)
       + 0.8 X1(4)(1) + 0.8 X1(4)(2) + 0.8 X1(4)(3) + 0.8 X1(4)(4)
       + 0.9 X2(0)(0) + 0.9 X2(0)(1) + 0.9 X2(0)(2) + 0.9 X2(0)(3)
       + 0.9 X2(0)(4) + 0.9 X2(1)(0) + 0.9 X2(1)(1) + 0.9 X2(1)(2)
       + 0.9 X2(1)(3) + 0.9 X2(1)(4) + 0.9 X2(2)(0) + 0.9 X2(2)(1)
       + 0.9 X2(2)(2) + 0.9 X2(2)(3) + 0.9 X2(2)(4) + 0.9 X2(3)(0)
       + 0.9 X2(3)(1) + 0.9 X2(3)(2) + 0.9 X2(3)(3) + 0.9 X2(3)(4)
       + 0.9 X2(4)(0) + 0.9 X2(4)(1) + 0.9 X2(4)(2) + 0.9 X2(4)(3)
       + 0.9 X2(4)(4) + 0.5 I(0)(0) + 0.5 I(0)(1) + 0.5 I(0)(2) + 0.5 I(0)(3)
       + 0.5 I(0)(4) + 0.5 I(1)(0) + 0.5 I(1)(1) + 0.5 I(1)(2) + 0.5 I(1)(3)
       + 0.5 I(1)(4) + 0.5 I(2)(0) + 0.5 I(2)(1) + 0.5 I(2)(2) + 0.5 I(2)(3)
       + 0.5 I(2)(4) + 0.5 I(3)(0) + 0.5 I(3)(1) + 0.5 I(3)(2) + 0.5 I(3)(3)
       + 0.5 I(3)(4) + 0.5 I(4)(0) + 0.5 I(4)(1) + 0.5 I(4)(2) + 0.5 I(4)(3)
       + 0.5 I(4)(4) + S(0)(0) + S(0)(1) + S(0)(2) + S(0)(3) + S(0)(4)
       + S(1)(0) + S(1)(1) + S(1)(2) + S(1)(3) + S(1)(4) + S(2)(0) + S(2)(1)
       + S(2)(2) + S(2)(3) + S(2)(4) + S(3)(0) + S(3)(1) + S(3)(2) + S(3)(3)
       + S(3)(4) + S(4)(0) + S(4)(1) + S(4)(2) + S(4)(3) + S(4)(4)
Subject To
 c1:   - X1(0)(0) - X2(0)(0) - I(0)(0) + 100000 Y(0)(1) >= -500
 c2:   - X1(0)(1) - X2(0)(1) - I(0)(1) + 100000 Y(0)(2) >= -500
 c3:   - X1(0)(2) - X2(0)(2) - I(0)(2) + 100000 Y(0)(3) >= -500
 c4:   - X1(0)(3) - X2(0)(3) - I(0)(3) + 100000 Y(0)(4) >= -501
 c5:   - X1(1)(0) - X2(1)(0) - I(1)(0) + 100000 Y(1)(1) >= -500
 c6:   - X1(1)(1) - X2(1)(1) - I(1)(1) + 100000 Y(1)(2) >= -500
 c7:   - X1(1)(2) - X2(1)(2) - I(1)(2) + 100000 Y(1)(3) >= -500
 c8:   - X1(1)(3) - X2(1)(3) - I(1)(3) + 100000 Y(1)(4) >= -500
 c9:   - X1(2)(0) - X2(2)(0) - I(2)(0) + 100000 Y(2)(1) >= -500
 c10:  - X1(2)(1) - X2(2)(1) - I(2)(1) + 100000 Y(2)(2) >= -501
 c11:  - X1(2)(2) - X2(2)(2) - I(2)(2) + 100000 Y(2)(3) >= -500
 c12:  - X1(2)(3) - X2(2)(3) - I(2)(3) + 100000 Y(2)(4) >= -500
 c13:  - X1(3)(0) - X2(3)(0) - I(3)(0) + 100000 Y(3)(1) >= -501
 c14:  - X1(3)(1) - X2(3)(1) - I(3)(1) + 100000 Y(3)(2) >= -500
 c15:  - X1(3)(2) - X2(3)(2) - I(3)(2) + 100000 Y(3)(3) >= -500
 c16:  - X1(3)(3) - X2(3)(3) - I(3)(3) + 100000 Y(3)(4) >= -501
 c17:  - X1(4)(0) - X2(4)(0) - I(4)(0) + 100000 Y(4)(1) >= -500
 c18:  - X1(4)(1) - X2(4)(1) - I(4)(1) + 100000 Y(4)(2) >= -501
 c19:  - X1(4)(2) - X2(4)(2) - I(4)(2) + 100000 Y(4)(3) >= -500
 c20:  - X1(4)(3) - X2(4)(3) - I(4)(3) + 100000 Y(4)(4) >= -500
 c21:  X1(0)(1) + X2(0)(1) + I(0)(0) - I(0)(1) + S(0)(1) >= 500
 c22:  X1(0)(2) + X2(0)(2) + I(0)(1) - I(0)(2) + S(0)(2) >= 500
 c23:  X1(0)(3) + X2(0)(3) + I(0)(2) - I(0)(3) + S(0)(3) >= 500
 c24:  X1(0)(4) + X2(0)(4) + I(0)(3) - I(0)(4) + S(0)(4) >= 501
 c25:  X1(1)(1) + X2(1)(1) + I(1)(0) - I(1)(1) + S(1)(1) >= 500
 c26:  X1(1)(2) + X2(1)(2) + I(1)(1) - I(1)(2) + S(1)(2) >= 500
 c27:  X1(1)(3) + X2(1)(3) + I(1)(2) - I(1)(3) + S(1)(3) >= 500
 c28:  X1(1)(4) + X2(1)(4) + I(1)(3) - I(1)(4) + S(1)(4) >= 500
 c29:  X1(2)(1) + X2(2)(1) + I(2)(0) - I(2)(1) + S(2)(1) >= 500
 c30:  X1(2)(2) + X2(2)(2) + I(2)(1) - I(2)(2) + S(2)(2) >= 501
 c31:  X1(2)(3) + X2(2)(3) + I(2)(2) - I(2)(3) + S(2)(3) >= 500
 c32:  X1(2)(4) + X2(2)(4) + I(2)(3) - I(2)(4) + S(2)(4) >= 500
 c33:  X1(3)(1) + X2(3)(1) + I(3)(0) - I(3)(1) + S(3)(1) >= 501
 c34:  X1(3)(2) + X2(3)(2) + I(3)(1) - I(3)(2) + S(3)(2) >= 500
 c35:  X1(3)(3) + X2(3)(3) + I(3)(2) - I(3)(3) + S(3)(3) >= 500
 c36:  X1(3)(4) + X2(3)(4) + I(3)(3) - I(3)(4) + S(3)(4) >= 501
 c37:  X1(4)(1) + X2(4)(1) + I(4)(0) - I(4)(1) + S(4)(1) >= 500
 c38:  X1(4)(2) + X2(4)(2) + I(4)(1) - I(4)(2) + S(4)(2) >= 501
 c39:  X1(4)(3) + X2(4)(3) + I(4)(2) - I(4)(3) + S(4)(3) >= 500
 c40:  X1(4)(4) + X2(4)(4) + I(4)(3) - I(4)(4) + S(4)(4) >= 500
 c41:  X1(0)(0) + X2(0)(0) + I(0)(0) + S(0)(1) + 100000 Y(0)(1) >= 500
 c42:  S(0)(1) + 100000 Y(0)(1) <= 100000
 c43:  X1(0)(1) + X2(0)(1) + I(0)(1) + S(0)(2) + 100000 Y(0)(2) >= 500
 c44:  S(0)(2) + 100000 Y(0)(2) <= 100000
 c45:  X1(0)(2) + X2(0)(2) + I(0)(2) + S(0)(3) + 100000 Y(0)(3) >= 500
 c46:  S(0)(3) + 100000 Y(0)(3) <= 100000
 c47:  X1(0)(3) + X2(0)(3) + I(0)(3) + S(0)(4) + 100000 Y(0)(4) >= 501
 c48:  S(0)(4) + 100000 Y(0)(4) <= 100000
 c49:  X1(1)(0) + X2(1)(0) + I(1)(0) + S(1)(1) + 100000 Y(1)(1) >= 500
 c50:  S(1)(1) + 100000 Y(1)(1) <= 100000
 c51:  X1(1)(1) + X2(1)(1) + I(1)(1) + S(1)(2) + 100000 Y(1)(2) >= 500
 c52:  S(1)(2) + 100000 Y(1)(2) <= 100000
 c53:  X1(1)(2) + X2(1)(2) + I(1)(2) + S(1)(3) + 100000 Y(1)(3) >= 500
 c54:  S(1)(3) + 100000 Y(1)(3) <= 100000
 c55:  X1(1)(3) + X2(1)(3) + I(1)(3) + S(1)(4) + 100000 Y(1)(4) >= 500
 c56:  S(1)(4) + 100000 Y(1)(4) <= 100000
 c57:  X1(2)(0) + X2(2)(0) + I(2)(0) + S(2)(1) + 100000 Y(2)(1) >= 500
 c58:  S(2)(1) + 100000 Y(2)(1) <= 100000
 c59:  X1(2)(1) + X2(2)(1) + I(2)(1) + S(2)(2) + 100000 Y(2)(2) >= 501
 c60:  S(2)(2) + 100000 Y(2)(2) <= 100000
 c61:  X1(2)(2) + X2(2)(2) + I(2)(2) + S(2)(3) + 100000 Y(2)(3) >= 500
 c62:  S(2)(3) + 100000 Y(2)(3) <= 100000
 c63:  X1(2)(3) + X2(2)(3) + I(2)(3) + S(2)(4) + 100000 Y(2)(4) >= 500
 c64:  S(2)(4) + 100000 Y(2)(4) <= 100000
 c65:  X1(3)(0) + X2(3)(0) + I(3)(0) + S(3)(1) + 100000 Y(3)(1) >= 501
 c66:  S(3)(1) + 100000 Y(3)(1) <= 100000
 c67:  X1(3)(1) + X2(3)(1) + I(3)(1) + S(3)(2) + 100000 Y(3)(2) >= 500
 c68:  S(3)(2) + 100000 Y(3)(2) <= 100000
 c69:  X1(3)(2) + X2(3)(2) + I(3)(2) + S(3)(3) + 100000 Y(3)(3) >= 500
 c70:  S(3)(3) + 100000 Y(3)(3) <= 100000
 c71:  X1(3)(3) + X2(3)(3) + I(3)(3) + S(3)(4) + 100000 Y(3)(4) >= 501
 c72:  S(3)(4) + 100000 Y(3)(4) <= 100000
 c73:  X1(4)(0) + X2(4)(0) + I(4)(0) + S(4)(1) + 100000 Y(4)(1) >= 500
 c74:  S(4)(1) + 100000 Y(4)(1) <= 100000
 c75:  X1(4)(1) + X2(4)(1) + I(4)(1) + S(4)(2) + 100000 Y(4)(2) >= 501
 c76:  S(4)(2) + 100000 Y(4)(2) <= 100000
 c77:  X1(4)(2) + X2(4)(2) + I(4)(2) + S(4)(3) + 100000 Y(4)(3) >= 500
 c78:  S(4)(3) + 100000 Y(4)(3) <= 100000
 c79:  X1(4)(3) + X2(4)(3) + I(4)(3) + S(4)(4) + 100000 Y(4)(4) >= 500
 c80:  S(4)(4) + 100000 Y(4)(4) <= 100000
 c81:  I(0)(0) - I(1)(0)  = 0
 c82:  I(1)(0) - I(2)(0)  = 0
 c83:  I(2)(0) - I(3)(0)  = 0
 c84:  I(3)(0) - I(4)(0)  = 0
 c85:  X1(0)(1) <= 500
 c86:  X1(0)(2) <= 500
 c87:  X1(0)(3) <= 500
 c88:  X1(0)(4) <= 500
 c89:  X1(1)(1) <= 500
 c90:  X1(1)(2) <= 500
 c91:  X1(1)(3) <= 500
 c92:  X1(1)(4) <= 500
 c93:  X1(2)(1) <= 500
 c94:  X1(2)(2) <= 500
 c95:  X1(2)(3) <= 500
 c96:  X1(2)(4) <= 500
 c97:  X1(3)(1) <= 500
 c98:  X1(3)(2) <= 500
 c99:  X1(3)(3) <= 500
 c100: X1(3)(4) <= 500
 c101: X1(4)(1) <= 500
 c102: X1(4)(2) <= 500
 c103: X1(4)(3) <= 500
 c104: X1(4)(4) <= 500
 c105: X2(0)(1) <= 100
 c106: X2(0)(2) <= 100
 c107: X2(0)(3) <= 100
 c108: X2(0)(4) <= 100
 c109: X2(1)(1) <= 100
 c110: X2(1)(2) <= 100
 c111: X2(1)(3) <= 100
 c112: X2(1)(4) <= 100
 c113: X2(2)(1) <= 100
 c114: X2(2)(2) <= 100
 c115: X2(2)(3) <= 100
 c116: X2(2)(4) <= 100
 c117: X2(3)(1) <= 100
 c118: X2(3)(2) <= 100
 c119: X2(3)(3) <= 100
 c120: X2(3)(4) <= 100
 c121: X2(4)(1) <= 100
 c122: X2(4)(2) <= 100
 c123: X2(4)(3) <= 100
 c124: X2(4)(4) <= 100
Bounds
 0 <= X1(0)(0) <= 100000
 0 <= X1(0)(1) <= 100000
 0 <= X1(0)(2) <= 100000
 0 <= X1(0)(3) <= 100000
 0 <= X1(0)(4) <= 100000
 0 <= X1(1)(0) <= 100000
 0 <= X1(1)(1) <= 100000
 0 <= X1(1)(2) <= 100000
 0 <= X1(1)(3) <= 100000
 0 <= X1(1)(4) <= 100000
 0 <= X1(2)(0) <= 100000
 0 <= X1(2)(1) <= 100000
 0 <= X1(2)(2) <= 100000
 0 <= X1(2)(3) <= 100000
 0 <= X1(2)(4) <= 100000
 0 <= X1(3)(0) <= 100000
 0 <= X1(3)(1) <= 100000
 0 <= X1(3)(2) <= 100000
 0 <= X1(3)(3) <= 100000
 0 <= X1(3)(4) <= 100000
 0 <= X1(4)(0) <= 100000
 0 <= X1(4)(1) <= 100000
 0 <= X1(4)(2) <= 100000
 0 <= X1(4)(3) <= 100000
 0 <= X1(4)(4) <= 100000
 0 <= X2(0)(0) <= 100000
 0 <= X2(0)(1) <= 100000
 0 <= X2(0)(2) <= 100000
 0 <= X2(0)(3) <= 100000
 0 <= X2(0)(4) <= 100000
 0 <= X2(1)(0) <= 100000
 0 <= X2(1)(1) <= 100000
 0 <= X2(1)(2) <= 100000
 0 <= X2(1)(3) <= 100000
 0 <= X2(1)(4) <= 100000
 0 <= X2(2)(0) <= 100000
 0 <= X2(2)(1) <= 100000
 0 <= X2(2)(2) <= 100000
 0 <= X2(2)(3) <= 100000
 0 <= X2(2)(4) <= 100000
 0 <= X2(3)(0) <= 100000
 0 <= X2(3)(1) <= 100000
 0 <= X2(3)(2) <= 100000
 0 <= X2(3)(3) <= 100000
 0 <= X2(3)(4) <= 100000
 0 <= X2(4)(0) <= 100000
 0 <= X2(4)(1) <= 100000
 0 <= X2(4)(2) <= 100000
 0 <= X2(4)(3) <= 100000
 0 <= X2(4)(4) <= 100000
 0 <= I(0)(0) <= 100000
 0 <= I(0)(1) <= 100000
 0 <= I(0)(2) <= 100000
 0 <= I(0)(3) <= 100000
 0 <= I(0)(4) <= 100000
 0 <= I(1)(0) <= 100000
 0 <= I(1)(1) <= 100000
 0 <= I(1)(2) <= 100000
 0 <= I(1)(3) <= 100000
 0 <= I(1)(4) <= 100000
 0 <= I(2)(0) <= 100000
 0 <= I(2)(1) <= 100000
 0 <= I(2)(2) <= 100000
 0 <= I(2)(3) <= 100000
 0 <= I(2)(4) <= 100000
 0 <= I(3)(0) <= 100000
 0 <= I(3)(1) <= 100000
 0 <= I(3)(2) <= 100000
 0 <= I(3)(3) <= 100000
 0 <= I(3)(4) <= 100000
 0 <= I(4)(0) <= 100000
 0 <= I(4)(1) <= 100000
 0 <= I(4)(2) <= 100000
 0 <= I(4)(3) <= 100000
 0 <= I(4)(4) <= 100000
 0 <= S(0)(0) <= 100000
 0 <= S(0)(1) <= 100000
 0 <= S(0)(2) <= 100000
 0 <= S(0)(3) <= 100000
 0 <= S(0)(4) <= 100000
 0 <= S(1)(0) <= 100000
 0 <= S(1)(1) <= 100000
 0 <= S(1)(2) <= 100000
 0 <= S(1)(3) <= 100000
 0 <= S(1)(4) <= 100000
 0 <= S(2)(0) <= 100000
 0 <= S(2)(1) <= 100000
 0 <= S(2)(2) <= 100000
 0 <= S(2)(3) <= 100000
 0 <= S(2)(4) <= 100000
 0 <= S(3)(0) <= 100000
 0 <= S(3)(1) <= 100000
 0 <= S(3)(2) <= 100000
 0 <= S(3)(3) <= 100000
 0 <= S(3)(4) <= 100000
 0 <= S(4)(0) <= 100000
 0 <= S(4)(1) <= 100000
 0 <= S(4)(2) <= 100000
 0 <= S(4)(3) <= 100000
 0 <= S(4)(4) <= 100000
 0 <= Y(0)(1) <= 1
 0 <= Y(0)(2) <= 1
 0 <= Y(0)(3) <= 1
 0 <= Y(0)(4) <= 1
 0 <= Y(1)(1) <= 1
 0 <= Y(1)(2) <= 1
 0 <= Y(1)(3) <= 1
 0 <= Y(1)(4) <= 1
 0 <= Y(2)(1) <= 1
 0 <= Y(2)(2) <= 1
 0 <= Y(2)(3) <= 1
 0 <= Y(2)(4) <= 1
 0 <= Y(3)(1) <= 1
 0 <= Y(3)(2) <= 1
 0 <= Y(3)(3) <= 1
 0 <= Y(3)(4) <= 1
 0 <= Y(4)(1) <= 1
 0 <= Y(4)(2) <= 1
 0 <= Y(4)(3) <= 1
 0 <= Y(4)(4) <= 1
Binaries
 Y(0)(1)  Y(0)(2)  Y(0)(3)  Y(0)(4)  Y(1)(1)  Y(1)(2)  Y(1)(3)  Y(1)(4) 
 Y(2)(1)  Y(2)(2)  Y(2)(3)  Y(2)(4)  Y(3)(1)  Y(3)(2)  Y(3)(3)  Y(3)(4) 
 Y(4)(1)  Y(4)(2)  Y(4)(3)  Y(4)(4) 
End
